15
36
36
-19 -5 -39 -36 -22 -37 -5 -11 -31 -30 -14 -4 -20 -32 -8
-16 -6 -29 -36 -6 -16 -21 -15 -24 -37 -18 -4 -9 -18 -34
31 7 13 35 4 36 22 32 12 6 36 12 19 3 3
22 29 13 25 14 36 23 34 8 8 35 14 27 18 33
